198 20625
1 2 7 6 3 4 5 8 9 10 11 12 13 58 69 71 85 86 100 99 87 84 72 68 73 70 67 60 56 14 15 16 17 18 19 20 23 22 21 25 24 26 27 28 29 30 33 34 39 35 48 91 92 117 118 119 124 132 133 135 141 143 150 151 163 164 165 166 182 183 181 177 175 178 180 179 194 195 196 197 198 174 173 176 168 167 63 49 50 77 76 81 65 62 53 45 54 61 66 74 83 97 98 88 82 75 89 90 96 95 94 101 102 93 103 104 122 154 155 156 157 158 159 138 139 123 121 116 115 113 112 107 106 111 110 108 109 169 125 126 131 130 136 129 127 170 128 171 189 188 184 185 187 186 193 192 191 190 172 137 144 145 149 153 160 161 162 152 148 147 146 142 140 134 120 114 105 79 80 78 64 51 47 52 46 36 37 32 31 38 44 55 59 43 42 57 41 40 
